20J7M/DAT/20J7MULL-1.dat
20 7
11.1353 11.1353
36.6542 36.6542
4.1 4.1
27.0179 27.0179
29.3904 29.3904
24.6601 24.6601
31.1826 31.1826
17.7072 17.7072
33.1626 33.1626
33.1302 33.1302
41.3104 41.3104
0.8865 0.8865
17.5891 17.5891
23.9651 23.9651
12.0586 12.0586
5.6274 5.6274
30.1208 30.1208
20.549 20.549
20.3676 20.3676
36.3427 36.3427
65.2797