20J7M/SOL/20J7MULL-1.sol
solution status: optimal solution found
objective value:                     65.2796714285714
x#1#2                                               1 	(obj:0)
x#2#5                               0.678510044064332 	(obj:0)
x#2#6                               0.321489955935668 	(obj:0)
x#3#4                                               1 	(obj:0)
x#4#1                               0.415752413875881 	(obj:0)
x#4#2                               0.584247586124119 	(obj:0)
x#5#2                                               1 	(obj:0)
x#6#1                               0.717929541474458 	(obj:0)
x#6#7                               0.282070458525542 	(obj:0)
x#7#2                               0.259193542919082 	(obj:0)
x#7#3                               0.740806457080918 	(obj:0)
x#8#4                               0.590741135163743 	(obj:0)
x#8#5                               0.409258864836257 	(obj:0)
x#9#5                                               1 	(obj:0)
x#10#4                                              1 	(obj:0)
x#11#6                              0.304502359834674 	(obj:0)
x#11#7                              0.695497640165326 	(obj:0)
x#12#2                                              1 	(obj:0)
x#13#4                                              1 	(obj:0)
x#14#7                                              1 	(obj:0)
x#15#3                                              1 	(obj:0)
x#16#7                                              1 	(obj:0)
x#17#3                                              1 	(obj:0)
x#18#6                                              1 	(obj:0)
x#19#6                                              1 	(obj:0)
x#20#1                                              1 	(obj:0)
z                                    65.2796714285714 	(obj:1)
